#Test t2
#Variables-----------------------------------------------------------------#
variable T1 equal 	0.72
variable T2 equal   1.44  #0.9 
variable L0 equal 	0.0
variable L1 equal 	4.861

#timestep 0.005

#Initialization parameters-------------------------------------------------#
units 	 		lj
dimension		3
boundary		p p p
#atom_style		full

#atom_modify map array #yes

#Box and atom creation-----------------------------------------------------#
region 			R1 block ${L0} ${L1} ${L0} ${L1} ${L0} ${L1}
create_box 		1 R1 
lattice 		fcc 0.94
create_atoms 	1 box 
mass 			1 39.948 


#LJ interactions-----------------------------------------------------------#
pair_style lj/cut 2.937
pair_coeff * * 1.0 1.0 2.937
pair_modify shift yes

#dump a movie every 100 tsteps---------------------------------------------#
#dump	     dumpmovie all movie 100 movie1.mpg type type box yes 0.01 #zoom 2.0


#create velocities 1-------------------------------------------------------#
velocity all create  ${T1}  26493 dist gaussian 



# #print thermo prop every 500 steps-----------------------------------------#	
thermo_style custom pe ke etotal temp  press  step #c_ccf_test
thermo 10000


# #set timestep, nve integrator and run1-------------------------------------#
timestep 		0.0005
fix 1nve all nve
run 			60000
unfix 1nve

min_style sd
minimize	0.0 0.0 10000 10000 	

reset_timestep 0

velocity all create  ${T2}  54616 dist gaussian #39566

thermo 100

fix 2nve all nve

compute stein3 all ccf  cutoff 1.75

dump  dump_stein3 all custom 400 ./out_dump/dumpfile-*.txt id c_stein3[*]

# performs migration
run 	500

# no migration
#run   400

unfix 2nve

#END